 units          lj
 boundary   p p p
 atom_style  atomic
 atom_modify  map array
 
 read_data data.case
 
 pair_style  lj/cut   2.00000000000000     
 
pair_coeff     *     *   1.0000   1.0000
 
 neighbor      0.3  bin
 compute       peatom all pe/atom
   compute    pe1      all  reduce sum c_peatom
 fix 1 all nve
 log none
