pair_style  lj/cut  2.0
pair_coeff  *  *  1.671 1.0
