pair_style  lj/cut  2.0
pair_coeff  *  *  1.0  1.0
