pair_style  airebo  6.0 1 0
pair_coeff     *     *      CH.airebo   C H

