BEGIN
BEGIN_PATH_INPUT
&PATH
  restart_mode      = 'from_scratch',
  string_method     = 'neb',
  nstep_path        = 32,
  ds                = 2.D0,
  opt_scheme        = "broyden",
  num_of_images     = 18,
  k_max             = 0.3D0,
  k_min             = 0.2D0,
  CI_scheme         = "auto",
  path_thr          = 0.1D0,
/
END_PATH_INPUT
BEGIN_ENGINE_INPUT
&CONTROL
  prefix         = "H3S_NEB",
  outdir         = "./",
  pseudo_dir     = "../../../pseudo",
/
&SYSTEM
   ibrav=0,
   celldm(1)= 7.9720789,
   nat= 16,
   ntyp=2,
   ecutwfc= 20,
   occupations="smearing", smearing="methfessel-paxton", degauss=0.03,
/
&ELECTRONS
  conv_thr    = 1.D-8,
  mixing_beta = 0.2D0,
/
&IONS
   ion_dynamics = 'bfgs',
   trust_radius_min = 2.0D-5,
   trust_radius_max = 1.0D-2,
   trust_radius_ini = 1.0D-2,
/
&CELL
   cell_dynamics = 'bfgs',
   press = 2000.00,
/
ATOMIC_SPECIES
S 32.066 S.GGA.UPF,
H 1.0079 H-pbe-default_1.UPF,
BEGIN_POSITIONS
FIRST_IMAGE
ATOMIC_POSITIONS {crystal}
S        0.233184183   0.284760115   0.045337057
S        0.733186472   0.284760060   0.545341685
S        0.233187811   0.784759337   0.545327061
S        0.733185381   0.784757383   0.045340375
H       -0.016844954   0.034733965   0.044894852
H        0.483191066   0.034776651   0.044916027
H       -0.016807035   0.534769182   0.044885136
H        0.483147248   0.534740985   0.044895652
H       -0.016792253   0.034781812   0.544897579
H        0.483160464   0.034729983   0.544919715
H       -0.016828077   0.534727197   0.544885256
H        0.483196808   0.534775400   0.544897841
H        0.233205843   0.284771359   0.546331913
H        0.733184631   0.284769378   0.046348374
H        0.233189545   0.784781976   0.046303164
H        0.733212568   0.784769718   0.546341215
INTERMEDIATE_IMAGE
ATOMIC_POSITIONS {crystal}
S 0.6479271 0.6621598 0.22679
S 2.5295792 0.8378173 1.5924704
S 1.0833054 3.1767933 1.2786605
S 3.2701411 2.7964878 -0.1853521
H 3.4393094 -0.1747753 0.2935918
H 2.0073161 -0.2241838 -0.1513757
H 4.0000119 1.7142296 0.4221003
H 1.8889582 2.7449787 -0.1762272
H 3.7020338 0.6954648 2.051759
H 1.378814 -0.0690266 2.0360539
H 0.4366294 1.8416376 1.8590944
H 1.8577714 1.9668276 1.0710609
H 0.3988928 1.1319673 1.7141042
H 3.4227677 0.3610432 0.0190984
H 1.0995433 2.6062939 -0.1576339
H 3.7068346 2.8380661 1.4815088
LAST_IMAGE
ATOMIC_POSITIONS {crystal}
S        0.537046456   0.790824571   0.061824582
S        2.066344069   0.661354244   1.489898545
S        0.612494245   3.111986262   1.646808245
S        2.616350413   2.471781064   0.155363020
H        4.178525945  -0.649708786  -0.290721023
H        2.739644143  -0.522933377  -0.005666908
H        3.635983924   1.072084536   0.828242498
H        2.029739161   3.224417476  -0.902508047
H        4.128798305  -0.614986641   1.208267449
H        1.659498066  -1.271021966   2.569160467
H       -0.407746153   2.195210002   2.103268835
H        1.223563502   1.812654756   1.630578289
H       -0.215566527   0.870628980   2.106561877
H        2.671556555   0.247823946  -0.194452423
H        0.865444741   2.130523473   0.169198209
H        2.454877715   3.985281458   1.740672856
END_POSITIONS
K_POINTS {automatic}
8 8 8 0 0 0
CELL_PARAMETERS {alat}
   1.000000000   0.000000000   0.000000000
   0.000000000   1.000000000   0.000000000
   0.000000000   0.000000000   0.707068483
END_ENGINE_INPUT
END

